3
4
40
1 1.3 1.55 1.75 2.1
21 42 11 11 20 30 41 17 5 43 27 44 6 24 15 12 18 6 10 40 16 11 14 32 33 37 28 25 31 24 23 33 47 20 17 9 30 8 24 13 11 22 44 35 18 24 49 35 19 45 37 49 31 5 13 37 31 44 39 14 15 35 32 38 29 48 48 38 5 43 24 49 12 24 28 22 49 18 20 19 36 47 30 44 23 35 23 33 19 36 46 21 15 31 39 48 28 12 42 36 24 36 29 36 12 47 45 6 18 49 6 21 7 9 33 6 7 9 35 20 15 10 9 13 38 5 37 25 22 42 14 41 33 44 34 48 20 32 12 8 6 8 9 20 19 22 12 27 48 27 12 28 14 24 33 15 5 39 12 28 